
<<< setup

Version identifier: 22.1.1.0 | 2022-11-27 | 9160aff4d
Tried aggregator 1 time.
LP Presolve eliminated 106 rows and 77 columns.
Reduced LP has 2 rows, 15 columns, and 15 nonzeros.
Presolve time = 0.00 sec. (0.04 ticks)

Iteration log . . .
Iteration:     1   Dual infeasibility =             0.000000
Iteration:     2   Dual objective     =          1441.284384
main returns 0

<<< main


<<< done

